
-5.0
-4.9
-4.88
-4.76
-4.72
-4.68
-4.6
-4.48
-4.38
-4.32
-4.2
-4.12
-4.12
-4.1
-4.08
-4.04
-4.0
-3.96
-3.94
-3.88
-3.88
-3.88
-3.86
-3.86
-3.84
-3.84
-3.84
-3.84
-3.84
-3.84
-3.84
-3.84
-3.84
-3.84
-3.84
-3.82
-3.82
-3.82
-3.82
-3.82